NAME : Envelope graph
COMMENT : Example 6-vertex graph with HCs 1-2-3-6-5-4-1, 1-2-6-3-4-5-1 and 1-4-5-6-3-2-1
TYPE : HCP
DIMENSION : 4
EDGE_DATA_FORMAT : EDGE_LIST
EDGE_DATA_SECTION
1 2
1 4
2 1
2 3
3 2
3 4
4 1
4 3
-1
EOF
